
Gurobi 7.0.0 (win64, Python) logging started 11/10/16 13:16:24


Gurobi 7.0.0 (win64, Python) logging started 11/10/16 13:16:34


Gurobi 7.0.0 (win64, Python) logging started 11/10/16 13:17:46


Gurobi 7.0.0 (win64, Python) logging started 11/10/16 13:18:09


Gurobi 7.0.0 (win64, Python) logging started 11/10/16 13:18:13


Gurobi 7.0.0 (win64, Python) logging started 11/10/16 13:18:32


Gurobi 7.0.0 (win64, Python) logging started 11/10/16 13:18:41


Gurobi 7.0.0 (win64, Python) logging started 11/10/16 13:19:09


Gurobi 7.0.0 (win64, Python) logging started 11/10/16 13:19:28


Gurobi 7.0.0 (win64, Python) logging started 11/10/16 13:20:12


Gurobi 7.0.0 (win64, Python) logging started 11/10/16 13:20:38


Gurobi 7.0.0 (win64, Python) logging started 11/10/16 13:22:21


Gurobi 7.0.0 (win64, Python) logging started 11/10/16 13:27:21


Gurobi 7.0.0 (win64, Python) logging started 11/10/16 13:27:30


Gurobi 7.0.0 (win64, Python) logging started 11/10/16 13:28:16


Gurobi 7.0.0 (win64, Python) logging started 11/10/16 13:28:48


Gurobi 7.0.0 (win64, Python) logging started 11/10/16 13:29:16


Gurobi 7.0.0 (win64, Python) logging started 11/10/16 13:29:38


Gurobi 7.0.0 (win64, Python) logging started 11/10/16 13:30:19


Gurobi 7.0.0 (win64, Python) logging started 11/10/16 13:30:36


Gurobi 7.0.0 (win64, Python) logging started 11/10/16 13:30:58


Gurobi 7.0.0 (win64, Python) logging started 11/10/16 13:31:18


Gurobi 7.0.0 (win64, Python) logging started 11/10/16 13:31:24


Gurobi 7.0.0 (win64, Python) logging started 11/10/16 13:31:43


Gurobi 7.0.0 (win64, Python) logging started 11/10/16 13:32:12


Gurobi 7.0.0 (win64, Python) logging started 11/10/16 13:32:34


Gurobi 7.0.0 (win64, Python) logging started 11/10/16 13:32:43


Gurobi 7.0.0 (win64, Python) logging started 11/10/16 13:45:56


Gurobi 7.0.0 (win64, Python) logging started 11/10/16 14:38:54


Gurobi 7.0.0 (win64, Python) logging started 11/10/16 14:40:50


Gurobi 7.0.0 (win64, Python) logging started 11/10/16 14:41:03


Gurobi 7.0.0 (win64, Python) logging started 11/10/16 14:41:15


Gurobi 7.0.0 (win64, Python) logging started 11/10/16 14:42:10


Gurobi 7.0.0 (win64, Python) logging started 11/10/16 14:44:09


Gurobi 7.0.0 (win64, Python) logging started 11/10/16 14:45:32


Gurobi 7.0.0 (win64, Python) logging started 11/10/16 14:46:08


Gurobi 7.0.0 (win64, Python) logging started 11/10/16 14:46:25


Gurobi 7.0.0 (win64, Python) logging started 11/10/16 14:46:45


Gurobi 7.0.0 (win64, Python) logging started 11/10/16 14:47:04


Gurobi 7.0.0 (win64, Python) logging started 11/10/16 14:51:53


Gurobi 7.0.0 (win64, Python) logging started 11/10/16 14:53:28


Gurobi 7.0.0 (win64, Python) logging started 11/10/16 14:53:47


Gurobi 7.0.0 (win64, Python) logging started 11/10/16 14:54:16


Gurobi 7.0.0 (win64, Python) logging started 11/10/16 14:54:22


Gurobi 7.0.0 (win64, Python) logging started 11/10/16 14:55:22


Gurobi 7.0.0 (win64, Python) logging started 11/10/16 14:55:36


Gurobi 7.0.0 (win64, Python) logging started 11/10/16 14:55:57


Gurobi 7.0.0 (win64, Python) logging started 11/10/16 14:56:28


Gurobi 7.0.0 (win64, Python) logging started 11/10/16 14:56:42


Gurobi 7.0.0 (win64, Python) logging started 11/10/16 15:00:13


Gurobi 7.0.0 (win64, Python) logging started 11/10/16 15:02:35


Gurobi 7.0.0 (win64, Python) logging started 11/10/16 15:02:44


Gurobi 7.0.0 (win64, Python) logging started 11/10/16 15:05:54


Gurobi 7.0.0 (win64, Python) logging started 11/10/16 15:06:13


Gurobi 7.0.0 (win64, Python) logging started 11/10/16 15:07:09


Gurobi 7.0.0 (win64, Python) logging started 11/10/16 15:07:49


Gurobi 7.0.0 (win64, Python) logging started 11/10/16 15:07:55


Gurobi 7.0.0 (win64, Python) logging started 11/10/16 15:08:18


Gurobi 7.0.0 (win64, Python) logging started 11/10/16 15:08:51


Gurobi 7.0.0 (win64, Python) logging started 11/10/16 15:09:30


Gurobi 7.0.0 (win64, Python) logging started 11/10/16 15:09:41


Gurobi 7.0.0 (win64, Python) logging started 11/10/16 15:10:17


Gurobi 7.0.0 (win64, Python) logging started 11/10/16 15:10:43


Gurobi 7.0.0 (win64, Python) logging started 11/10/16 15:13:51


Gurobi 7.0.0 (win64, Python) logging started 11/10/16 15:13:57


Gurobi 7.0.0 (win64, Python) logging started 11/10/16 15:14:08


Gurobi 7.0.0 (win64, Python) logging started 11/10/16 15:14:30


Gurobi 7.0.0 (win64, Python) logging started 11/10/16 15:17:51


Gurobi 7.0.0 (win64, Python) logging started 11/10/16 15:18:13


Gurobi 7.0.0 (win64, Python) logging started 11/10/16 15:19:07


Gurobi 7.0.0 (win64, Python) logging started 11/10/16 15:19:34


Gurobi 7.0.0 (win64, Python) logging started 11/10/16 15:20:35


Gurobi 7.0.0 (win64, Python) logging started 11/10/16 15:21:07


Gurobi 7.0.0 (win64, Python) logging started 11/10/16 15:21:20


Gurobi 7.0.0 (win64, Python) logging started 11/10/16 15:21:32


Gurobi 7.0.0 (win64, Python) logging started 11/10/16 15:21:38


Gurobi 7.0.0 (win64, Python) logging started 11/10/16 15:21:47


Gurobi 7.0.0 (win64, Python) logging started 11/10/16 15:21:52


Gurobi 7.0.0 (win64, Python) logging started 11/10/16 15:22:05


Gurobi 7.0.0 (win64, Python) logging started 11/10/16 15:22:46


Gurobi 7.0.0 (win64, Python) logging started 11/10/16 15:22:53


Gurobi 7.0.0 (win64, Python) logging started 11/10/16 15:23:00


Gurobi 7.0.0 (win64, Python) logging started 11/10/16 15:26:54


Gurobi 7.0.0 (win64, Python) logging started 11/10/16 15:30:24


Gurobi 7.0.0 (win64, Python) logging started 11/10/16 15:30:32


Gurobi 7.0.0 (win64, Python) logging started 11/10/16 15:30:58


Gurobi 7.0.0 (win64, Python) logging started 11/10/16 15:31:15


Gurobi 7.0.0 (win64, Python) logging started 11/10/16 15:36:22

